robotAllocationCost = array1d(1..15, [30, 30, 30, 30, 30, 30, 30, 10, 10, 10, 10, 10, 10, 10, 10]);
robotMoveCost = array1d(1..15, [5, 5, 5, 5, 5, 5, 5, 100, 100, 100, 100, 100, 100, 100, 100]);
robotMoveDistanceCost = array1d(1..15, [0, 0, 0, 0, 0, 0, 0, 3, 3, 3, 3, 3, 3, 3, 3]);
